problems/csplib-prob015/SchursLemma-models/noch/O2/lingeling/model_1_1-3-10-solution000001.solution
language Essence 1.3

letting boxes be partition({1, 3, 6, 8, 10}, {2, 4, 9}, {5, 7})
