problems/csplib-prob015/SchursLemma-models/noch/O2/minion/model_1_1-3-10-solution000001.eprime-solution
language ESSENCE' 1.0

letting boxes_PartitionAsSet_ExplicitR2_Occurrence be
        [[false, false, false, false, false, false, false, false, true, true; int(1..10)],
         [false, false, true, false, true, true, true, false, false, false; int(1..10)],
         [true, true, false, true, false, false, false, true, false, false; int(1..10)]; int(1..3)]
